Route #1: 31 46 35
Route #2: 83 51 81
Route #3: 15 22 41 20
Route #4: 23 61 100
Route #5: 52 91 50
Route #6: 18 10 39
Route #7: 93 75
Route #8: 30 85 11 79
Route #9: 19 97 27
Route #10: 24 95 73 53 33 32
Route #11: 80 94 56 21
Route #12: 3 77 63
Route #13: 54 70 1
Route #14: 86 9 92
Route #15: 25 65 78 42 28
Route #16: 44 67 88 40
Route #17: 74 13 4
Route #18: 87 37 6 49 14
Route #19: 59 60 82
Route #20: 68 90 84 66
Route #21: 71 62 99 98 89
Route #22: 57 72 36 29 43 45 2 7
Route #23: 38 47 26 48 96 64 34
Route #24: 17 8
Route #25: 58 12 5
Route #26: 69 16 55 76
Cost 27591.0000
Time 16.0006